% Logging successfully configured
%%%mzn-stat: initTime=0.004306322
%%%mzn-stat: objective=614
%%%mzn-stat: nodes=152
%%%mzn-stat: restarts=0
%%%mzn-stat: peakDepth=152
%%%mzn-stat: solveTime=0.000798926
%%%mzn-stat: variables=352
%%%mzn-stat: propagators=236
%%%mzn-stat: failures=0
%%%mzn-stat: propagations=790
%%%mzn-stat: nogoods=0
%%%mzn-stat: numAtomicConstraintsPropagated=0
%%%mzn-stat: circuitNumber1PropagationsTotal=30
%%%mzn-stat: circuitNumber1CircuitConflicts=0
%%%mzn-stat: circuitNumber1AlldiffConflicts=0
%%%mzn-stat: circuitNumber1TotalFixedEdgesAtConflict=0
%%%mzn-stat: circuitNumber1NumberOfConflicts=0
%%%mzn-stat: circuitNumber1GacPrunings=71
%%%mzn-stat: circuitNumber1PropagationsThatGacPruned=15
%%%mzn-stat: circuitNumber1TotalPruningHallSetSize=95
%%%mzn-stat: circuitNumber1NumberOfPruningExplanations=71
%%%mzn-stat: circuitNumber1MaxPruningHallSetSize=6
%%%mzn-stat: circuitNumber1TotalSccSizeAtPruning=29
%%%mzn-stat: circuitNumber1NumberOfSccPruningCalls=15
%%%mzn-stat: circuitNumber1TotalVarsInvolvedInPruning=67
%%%mzn-stat: circuitNumber1MaxValuesPrunedFromSingleVar=2
%%%mzn-stat: circuitNumber1HallCircuitChecks=31
%%%mzn-stat: circuitNumber1HallCircuitPrunings=6
%%%mzn-stat: circuitNumber1CircuitPreventPrunings=10
%%%mzn-stat: AverageConflictSize=0
%%%mzn-stat: NumUnitNogoodsLearned=0
%%%mzn-stat: AverageLearnedNogoodLength=0
%%%mzn-stat: AverageBacktrackAmount=0
%%%mzn-stat: AverageLbd=0
%%%mzn-stat: 2AutonomousSearchNumBackupCalled=138
%%%mzn-stat: 2AutonomousSearchNumPredicatesRemoved=0
%%%mzn-stat: 2AutonomousSearchNumCalls=139
%%%mzn-stat: 2AutonomousSearchNumPredicatesAdded=0
%%%mzn-stat: 2AutonomousSearchAverageSizeOfHeap=0
%%%mzn-stat: 2AutonomousSearchNumAssignedPredicatesEncountered=0
%%%mzn-stat-end
maxleg = 614;
succ = array1d(1..20,[4, 3, 7, 2, 6, 8, 5, 10, 1, 12, 9, 13, 20, 11, 16, 14, 19, 15, 18, 17]);
% time elapsed: 4.00 s
----------
%%%mzn-stat: initTime=0.004306322
%%%mzn-stat: objective=591
%%%mzn-stat: nodes=295
%%%mzn-stat: restarts=0
%%%mzn-stat: peakDepth=152
%%%mzn-stat: solveTime=0.001527839
%%%mzn-stat: variables=352
%%%mzn-stat: propagators=236
%%%mzn-stat: failures=0
%%%mzn-stat: propagations=1201
%%%mzn-stat: nogoods=0
%%%mzn-stat: numAtomicConstraintsPropagated=0
%%%mzn-stat: circuitNumber1PropagationsTotal=61
%%%mzn-stat: circuitNumber1CircuitConflicts=0
%%%mzn-stat: circuitNumber1AlldiffConflicts=0
%%%mzn-stat: circuitNumber1TotalFixedEdgesAtConflict=0
%%%mzn-stat: circuitNumber1NumberOfConflicts=0
%%%mzn-stat: circuitNumber1GacPrunings=140
%%%mzn-stat: circuitNumber1PropagationsThatGacPruned=31
%%%mzn-stat: circuitNumber1TotalPruningHallSetSize=204
%%%mzn-stat: circuitNumber1NumberOfPruningExplanations=140
%%%mzn-stat: circuitNumber1MaxPruningHallSetSize=7
%%%mzn-stat: circuitNumber1TotalSccSizeAtPruning=78
%%%mzn-stat: circuitNumber1NumberOfSccPruningCalls=31
%%%mzn-stat: circuitNumber1TotalVarsInvolvedInPruning=132
%%%mzn-stat: circuitNumber1MaxValuesPrunedFromSingleVar=3
%%%mzn-stat: circuitNumber1HallCircuitChecks=68
%%%mzn-stat: circuitNumber1HallCircuitPrunings=12
%%%mzn-stat: circuitNumber1CircuitPreventPrunings=17
%%%mzn-stat: AverageConflictSize=0
%%%mzn-stat: NumUnitNogoodsLearned=0
%%%mzn-stat: AverageLearnedNogoodLength=0
%%%mzn-stat: AverageBacktrackAmount=0
%%%mzn-stat: AverageLbd=0
%%%mzn-stat: 2AutonomousSearchNumBackupCalled=268
%%%mzn-stat: 2AutonomousSearchNumPredicatesRemoved=0
%%%mzn-stat: 2AutonomousSearchNumCalls=270
%%%mzn-stat: 2AutonomousSearchNumPredicatesAdded=0
%%%mzn-stat: 2AutonomousSearchAverageSizeOfHeap=0
%%%mzn-stat: 2AutonomousSearchNumAssignedPredicatesEncountered=0
%%%mzn-stat-end
maxleg = 591;
succ = array1d(1..20,[4, 3, 7, 9, 6, 8, 5, 1, 10, 12, 2, 13, 20, 11, 16, 14, 19, 15, 18, 17]);
% time elapsed: 4.00 s
----------
%%%mzn-stat: initTime=0.004306322
%%%mzn-stat: objective=568
%%%mzn-stat: nodes=476
%%%mzn-stat: restarts=0
%%%mzn-stat: peakDepth=152
%%%mzn-stat: solveTime=0.006728524
%%%mzn-stat: variables=352
%%%mzn-stat: propagators=236
%%%mzn-stat: failures=35
%%%mzn-stat: propagations=2345
%%%mzn-stat: nogoods=35
%%%mzn-stat: numAtomicConstraintsPropagated=0
%%%mzn-stat: circuitNumber1PropagationsTotal=227
%%%mzn-stat: circuitNumber1CircuitConflicts=28
%%%mzn-stat: circuitNumber1AlldiffConflicts=0
%%%mzn-stat: circuitNumber1TotalFixedEdgesAtConflict=451
%%%mzn-stat: circuitNumber1NumberOfConflicts=28
%%%mzn-stat: circuitNumber1GacPrunings=450
%%%mzn-stat: circuitNumber1PropagationsThatGacPruned=115
%%%mzn-stat: circuitNumber1TotalPruningHallSetSize=834
%%%mzn-stat: circuitNumber1NumberOfPruningExplanations=450
%%%mzn-stat: circuitNumber1MaxPruningHallSetSize=7
%%%mzn-stat: circuitNumber1TotalSccSizeAtPruning=381
%%%mzn-stat: circuitNumber1NumberOfSccPruningCalls=115
%%%mzn-stat: circuitNumber1TotalVarsInvolvedInPruning=414
%%%mzn-stat: circuitNumber1MaxValuesPrunedFromSingleVar=3
%%%mzn-stat: circuitNumber1HallCircuitChecks=265
%%%mzn-stat: circuitNumber1HallCircuitPrunings=24
%%%mzn-stat: circuitNumber1CircuitPreventPrunings=95
%%%mzn-stat: AverageConflictSize=11.228571428571428
%%%mzn-stat: NumUnitNogoodsLearned=0
%%%mzn-stat: AverageLearnedNogoodLength=16.228571428571428
%%%mzn-stat: AverageBacktrackAmount=0
%%%mzn-stat: AverageLbd=10.542857142857143
%%%mzn-stat: 2AutonomousSearchNumBackupCalled=398
%%%mzn-stat: 2AutonomousSearchNumPredicatesRemoved=0
%%%mzn-stat: 2AutonomousSearchNumCalls=401
%%%mzn-stat: 2AutonomousSearchNumPredicatesAdded=318
%%%mzn-stat: 2AutonomousSearchAverageSizeOfHeap=0.7930174563591023
%%%mzn-stat: 2AutonomousSearchNumAssignedPredicatesEncountered=318
%%%mzn-stat-end
maxleg = 568;
succ = array1d(1..20,[4, 3, 11, 9, 6, 7, 8, 1, 15, 12, 14, 13, 17, 18, 16, 2, 20, 19, 10, 5]);
% time elapsed: 4.00 s
----------
%%%mzn-stat: initTime=0.004306322
%%%mzn-stat: objective=499
%%%mzn-stat: nodes=619
%%%mzn-stat: restarts=0
%%%mzn-stat: peakDepth=152
%%%mzn-stat: solveTime=0.007664347
%%%mzn-stat: variables=352
%%%mzn-stat: propagators=236
%%%mzn-stat: failures=36
%%%mzn-stat: propagations=2790
%%%mzn-stat: nogoods=36
%%%mzn-stat: numAtomicConstraintsPropagated=0
%%%mzn-stat: circuitNumber1PropagationsTotal=262
%%%mzn-stat: circuitNumber1CircuitConflicts=29
%%%mzn-stat: circuitNumber1AlldiffConflicts=0
%%%mzn-stat: circuitNumber1TotalFixedEdgesAtConflict=466
%%%mzn-stat: circuitNumber1NumberOfConflicts=29
%%%mzn-stat: circuitNumber1GacPrunings=535
%%%mzn-stat: circuitNumber1PropagationsThatGacPruned=132
%%%mzn-stat: circuitNumber1TotalPruningHallSetSize=1004
%%%mzn-stat: circuitNumber1NumberOfPruningExplanations=535
%%%mzn-stat: circuitNumber1MaxPruningHallSetSize=7
%%%mzn-stat: circuitNumber1TotalSccSizeAtPruning=438
%%%mzn-stat: circuitNumber1NumberOfSccPruningCalls=132
%%%mzn-stat: circuitNumber1TotalVarsInvolvedInPruning=487
%%%mzn-stat: circuitNumber1MaxValuesPrunedFromSingleVar=3
%%%mzn-stat: circuitNumber1HallCircuitChecks=306
%%%mzn-stat: circuitNumber1HallCircuitPrunings=26
%%%mzn-stat: circuitNumber1CircuitPreventPrunings=105
%%%mzn-stat: AverageConflictSize=10.972222222222221
%%%mzn-stat: NumUnitNogoodsLearned=0
%%%mzn-stat: AverageLearnedNogoodLength=15.86111111111111
%%%mzn-stat: AverageBacktrackAmount=0
%%%mzn-stat: AverageLbd=10.305555555555555
%%%mzn-stat: 2AutonomousSearchNumBackupCalled=525
%%%mzn-stat: 2AutonomousSearchNumPredicatesRemoved=0
%%%mzn-stat: 2AutonomousSearchNumCalls=529
%%%mzn-stat: 2AutonomousSearchNumPredicatesAdded=332
%%%mzn-stat: 2AutonomousSearchAverageSizeOfHeap=1.2022684310018903
%%%mzn-stat: 2AutonomousSearchNumAssignedPredicatesEncountered=636
%%%mzn-stat-end
maxleg = 499;
succ = array1d(1..20,[8, 3, 11, 9, 6, 7, 12, 5, 1, 18, 4, 13, 20, 2, 16, 14, 19, 15, 10, 17]);
% time elapsed: 4.00 s
----------
%%%mzn-stat: initTime=0.004306322
%%%mzn-stat: objective=458
%%%mzn-stat: nodes=741
%%%mzn-stat: restarts=0
%%%mzn-stat: peakDepth=152
%%%mzn-stat: solveTime=0.008402849
%%%mzn-stat: variables=352
%%%mzn-stat: propagators=236
%%%mzn-stat: failures=36
%%%mzn-stat: propagations=3208
%%%mzn-stat: nogoods=36
%%%mzn-stat: numAtomicConstraintsPropagated=0
%%%mzn-stat: circuitNumber1PropagationsTotal=287
%%%mzn-stat: circuitNumber1CircuitConflicts=29
%%%mzn-stat: circuitNumber1AlldiffConflicts=0
%%%mzn-stat: circuitNumber1TotalFixedEdgesAtConflict=466
%%%mzn-stat: circuitNumber1NumberOfConflicts=29
%%%mzn-stat: circuitNumber1GacPrunings=596
%%%mzn-stat: circuitNumber1PropagationsThatGacPruned=144
%%%mzn-stat: circuitNumber1TotalPruningHallSetSize=1089
%%%mzn-stat: circuitNumber1NumberOfPruningExplanations=596
%%%mzn-stat: circuitNumber1MaxPruningHallSetSize=7
%%%mzn-stat: circuitNumber1TotalSccSizeAtPruning=462
%%%mzn-stat: circuitNumber1NumberOfSccPruningCalls=144
%%%mzn-stat: circuitNumber1TotalVarsInvolvedInPruning=541
%%%mzn-stat: circuitNumber1MaxValuesPrunedFromSingleVar=3
%%%mzn-stat: circuitNumber1HallCircuitChecks=334
%%%mzn-stat: circuitNumber1HallCircuitPrunings=29
%%%mzn-stat: circuitNumber1CircuitPreventPrunings=113
%%%mzn-stat: AverageConflictSize=10.972222222222221
%%%mzn-stat: NumUnitNogoodsLearned=0
%%%mzn-stat: AverageLearnedNogoodLength=15.86111111111111
%%%mzn-stat: AverageBacktrackAmount=0
%%%mzn-stat: AverageLbd=10.305555555555555
%%%mzn-stat: 2AutonomousSearchNumBackupCalled=634
%%%mzn-stat: 2AutonomousSearchNumPredicatesRemoved=0
%%%mzn-stat: 2AutonomousSearchNumCalls=639
%%%mzn-stat: 2AutonomousSearchNumPredicatesAdded=332
%%%mzn-stat: 2AutonomousSearchAverageSizeOfHeap=1.4929577464788732
%%%mzn-stat: 2AutonomousSearchNumAssignedPredicatesEncountered=954
%%%mzn-stat-end
maxleg = 458;
succ = array1d(1..20,[8, 3, 11, 9, 6, 7, 12, 5, 1, 19, 4, 13, 20, 2, 16, 14, 10, 15, 18, 17]);
% time elapsed: 4.00 s
----------
%%%mzn-stat: initTime=0.004306322
%%%mzn-stat: objective=453
%%%mzn-stat: nodes=901
%%%mzn-stat: restarts=0
%%%mzn-stat: peakDepth=152
%%%mzn-stat: solveTime=0.015222969
%%%mzn-stat: variables=352
%%%mzn-stat: propagators=236
%%%mzn-stat: failures=73
%%%mzn-stat: propagations=4767
%%%mzn-stat: nogoods=73
%%%mzn-stat: numAtomicConstraintsPropagated=0
%%%mzn-stat: circuitNumber1PropagationsTotal=468
%%%mzn-stat: circuitNumber1CircuitConflicts=55
%%%mzn-stat: circuitNumber1AlldiffConflicts=0
%%%mzn-stat: circuitNumber1TotalFixedEdgesAtConflict=833
%%%mzn-stat: circuitNumber1NumberOfConflicts=55
%%%mzn-stat: circuitNumber1GacPrunings=988
%%%mzn-stat: circuitNumber1PropagationsThatGacPruned=237
%%%mzn-stat: circuitNumber1TotalPruningHallSetSize=2212
%%%mzn-stat: circuitNumber1NumberOfPruningExplanations=988
%%%mzn-stat: circuitNumber1MaxPruningHallSetSize=11
%%%mzn-stat: circuitNumber1TotalSccSizeAtPruning=1018
%%%mzn-stat: circuitNumber1NumberOfSccPruningCalls=237
%%%mzn-stat: circuitNumber1TotalVarsInvolvedInPruning=843
%%%mzn-stat: circuitNumber1MaxValuesPrunedFromSingleVar=4
%%%mzn-stat: circuitNumber1HallCircuitChecks=606
%%%mzn-stat: circuitNumber1HallCircuitPrunings=33
%%%mzn-stat: circuitNumber1CircuitPreventPrunings=206
%%%mzn-stat: AverageConflictSize=9.136986301369863
%%%mzn-stat: NumUnitNogoodsLearned=0
%%%mzn-stat: AverageLearnedNogoodLength=22.28767123287671
%%%mzn-stat: AverageBacktrackAmount=0
%%%mzn-stat: AverageLbd=9.493150684931507
%%%mzn-stat: 2AutonomousSearchNumBackupCalled=742
%%%mzn-stat: 2AutonomousSearchNumPredicatesRemoved=0
%%%mzn-stat: 2AutonomousSearchNumCalls=748
%%%mzn-stat: 2AutonomousSearchNumPredicatesAdded=707
%%%mzn-stat: 2AutonomousSearchAverageSizeOfHeap=1.9197860962566844
%%%mzn-stat: 2AutonomousSearchNumAssignedPredicatesEncountered=1436
%%%mzn-stat-end
maxleg = 453;
succ = array1d(1..20,[9, 3, 11, 14, 6, 7, 12, 5, 4, 8, 15, 13, 20, 16, 18, 2, 1, 19, 10, 17]);
% time elapsed: 4.00 s
----------
%%%mzn-stat: initTime=0.004306322
%%%mzn-stat: objective=435
%%%mzn-stat: nodes=1023
%%%mzn-stat: restarts=0
%%%mzn-stat: peakDepth=152
%%%mzn-stat: solveTime=0.017339787
%%%mzn-stat: variables=352
%%%mzn-stat: propagators=236
%%%mzn-stat: failures=80
%%%mzn-stat: propagations=5478
%%%mzn-stat: nogoods=80
%%%mzn-stat: numAtomicConstraintsPropagated=0
%%%mzn-stat: circuitNumber1PropagationsTotal=521
%%%mzn-stat: circuitNumber1CircuitConflicts=60
%%%mzn-stat: circuitNumber1AlldiffConflicts=0
%%%mzn-stat: circuitNumber1TotalFixedEdgesAtConflict=911
%%%mzn-stat: circuitNumber1NumberOfConflicts=60
%%%mzn-stat: circuitNumber1GacPrunings=1114
%%%mzn-stat: circuitNumber1PropagationsThatGacPruned=263
%%%mzn-stat: circuitNumber1TotalPruningHallSetSize=2556
%%%mzn-stat: circuitNumber1NumberOfPruningExplanations=1114
%%%mzn-stat: circuitNumber1MaxPruningHallSetSize=11
%%%mzn-stat: circuitNumber1TotalSccSizeAtPruning=1157
%%%mzn-stat: circuitNumber1NumberOfSccPruningCalls=263
%%%mzn-stat: circuitNumber1TotalVarsInvolvedInPruning=940
%%%mzn-stat: circuitNumber1MaxValuesPrunedFromSingleVar=4
%%%mzn-stat: circuitNumber1HallCircuitChecks=668
%%%mzn-stat: circuitNumber1HallCircuitPrunings=34
%%%mzn-stat: circuitNumber1CircuitPreventPrunings=229
%%%mzn-stat: AverageConflictSize=8.85
%%%mzn-stat: NumUnitNogoodsLearned=0
%%%mzn-stat: AverageLearnedNogoodLength=22.925
%%%mzn-stat: AverageBacktrackAmount=0
%%%mzn-stat: AverageLbd=9.4
%%%mzn-stat: 2AutonomousSearchNumBackupCalled=844
%%%mzn-stat: 2AutonomousSearchNumPredicatesRemoved=0
%%%mzn-stat: 2AutonomousSearchNumCalls=851
%%%mzn-stat: 2AutonomousSearchNumPredicatesAdded=997
%%%mzn-stat: 2AutonomousSearchAverageSizeOfHeap=2.2573443008225618
%%%mzn-stat: 2AutonomousSearchNumAssignedPredicatesEncountered=1921
%%%mzn-stat-end
maxleg = 435;
succ = array1d(1..20,[9, 3, 11, 14, 6, 7, 12, 13, 4, 8, 15, 17, 20, 16, 18, 2, 1, 19, 10, 5]);
% time elapsed: 4.00 s
----------
%%%mzn-stat: initTime=0.004306322
%%%mzn-stat: objective=409
%%%mzn-stat: nodes=26529
%%%mzn-stat: restarts=0
%%%mzn-stat: peakDepth=152
%%%mzn-stat: solveTime=6.282199043
%%%mzn-stat: variables=352
%%%mzn-stat: propagators=236
%%%mzn-stat: failures=25052
%%%mzn-stat: propagations=942467
%%%mzn-stat: nogoods=25052
%%%mzn-stat: numAtomicConstraintsPropagated=0
%%%mzn-stat: circuitNumber1PropagationsTotal=105942
%%%mzn-stat: circuitNumber1CircuitConflicts=9625
%%%mzn-stat: circuitNumber1AlldiffConflicts=2395
%%%mzn-stat: circuitNumber1TotalFixedEdgesAtConflict=171992
%%%mzn-stat: circuitNumber1NumberOfConflicts=12020
%%%mzn-stat: circuitNumber1GacPrunings=277329
%%%mzn-stat: circuitNumber1PropagationsThatGacPruned=60212
%%%mzn-stat: circuitNumber1TotalPruningHallSetSize=1094875
%%%mzn-stat: circuitNumber1NumberOfPruningExplanations=277329
%%%mzn-stat: circuitNumber1MaxPruningHallSetSize=16
%%%mzn-stat: circuitNumber1TotalSccSizeAtPruning=441969
%%%mzn-stat: circuitNumber1NumberOfSccPruningCalls=60212
%%%mzn-stat: circuitNumber1TotalVarsInvolvedInPruning=215719
%%%mzn-stat: circuitNumber1MaxValuesPrunedFromSingleVar=6
%%%mzn-stat: circuitNumber1HallCircuitChecks=152191
%%%mzn-stat: circuitNumber1HallCircuitPrunings=2910
%%%mzn-stat: circuitNumber1CircuitPreventPrunings=65525
%%%mzn-stat: AverageConflictSize=7.106498483155038
%%%mzn-stat: NumUnitNogoodsLearned=0
%%%mzn-stat: AverageLearnedNogoodLength=31.51009899409229
%%%mzn-stat: AverageBacktrackAmount=0
%%%mzn-stat: AverageLbd=7.395377614561712
%%%mzn-stat: 2AutonomousSearchNumBackupCalled=936
%%%mzn-stat: 2AutonomousSearchNumPredicatesRemoved=0
%%%mzn-stat: 2AutonomousSearchNumCalls=944
%%%mzn-stat: 2AutonomousSearchNumPredicatesAdded=1719
%%%mzn-stat: 2AutonomousSearchAverageSizeOfHeap=2.8771186440677967
%%%mzn-stat: 2AutonomousSearchNumAssignedPredicatesEncountered=2716
%%%mzn-stat-end
maxleg = 409;
succ = array1d(1..20,[17, 3, 11, 14, 6, 7, 8, 10, 4, 19, 15, 13, 20, 16, 18, 2, 12, 1, 9, 5]);
% time elapsed: 10.25 s
----------
==========
% time elapsed: 11.19 s
%%%mzn-stat: initTime=0.004306322
%%%mzn-stat: objective=409
%%%mzn-stat: nodes=31336
%%%mzn-stat: restarts=0
%%%mzn-stat: peakDepth=152
%%%mzn-stat: solveTime=7.220992276
%%%mzn-stat: variables=352
%%%mzn-stat: propagators=236
%%%mzn-stat: failures=28910
%%%mzn-stat: propagations=1105341
%%%mzn-stat: nogoods=28910
%%%mzn-stat: numAtomicConstraintsPropagated=0
%%%mzn-stat: circuitNumber1PropagationsTotal=125547
%%%mzn-stat: circuitNumber1CircuitConflicts=12475
%%%mzn-stat: circuitNumber1AlldiffConflicts=2409
%%%mzn-stat: circuitNumber1TotalFixedEdgesAtConflict=217684
%%%mzn-stat: circuitNumber1NumberOfConflicts=14884
%%%mzn-stat: circuitNumber1GacPrunings=312168
%%%mzn-stat: circuitNumber1PropagationsThatGacPruned=70654
%%%mzn-stat: circuitNumber1TotalPruningHallSetSize=1159978
%%%mzn-stat: circuitNumber1NumberOfPruningExplanations=312168
%%%mzn-stat: circuitNumber1MaxPruningHallSetSize=16
%%%mzn-stat: circuitNumber1TotalSccSizeAtPruning=481003
%%%mzn-stat: circuitNumber1NumberOfSccPruningCalls=70654
%%%mzn-stat: circuitNumber1TotalVarsInvolvedInPruning=243816
%%%mzn-stat: circuitNumber1MaxValuesPrunedFromSingleVar=6
%%%mzn-stat: circuitNumber1HallCircuitChecks=180152
%%%mzn-stat: circuitNumber1HallCircuitPrunings=4927
%%%mzn-stat: circuitNumber1CircuitPreventPrunings=76786
%%%mzn-stat: AverageConflictSize=7.203701141473538
%%%mzn-stat: NumUnitNogoodsLearned=1
%%%mzn-stat: AverageLearnedNogoodLength=29.97876167416119
%%%mzn-stat: AverageBacktrackAmount=0
%%%mzn-stat: AverageLbd=7.205603597371152
%%%mzn-stat: 2AutonomousSearchNumBackupCalled=936
%%%mzn-stat: 2AutonomousSearchNumPredicatesRemoved=0
%%%mzn-stat: 2AutonomousSearchNumCalls=944
%%%mzn-stat: 2AutonomousSearchNumPredicatesAdded=2533
%%%mzn-stat: 2AutonomousSearchAverageSizeOfHeap=2.8771186440677967
%%%mzn-stat: 2AutonomousSearchNumAssignedPredicatesEncountered=2716
%%%mzn-stat-end
